NAME 
OBJSENSE MAX
ROWS
 N  OBJ
 L  packing[0]
 L  packing[1]
 L  packing[2]
 L  packing[3]
 L  packing[4]
 L  packing[5]
 L  packing[6]
 L  packing[7]
 L  packing[8]
 L  packing[9]
 L  packing[10]
 L  packing[11]
 L  packing[12]
 L  packing[13]
 L  packing[14]
 L  packing[15]
 L  packing[16]
 L  packing[17]
 L  packing[18]
 L  packing[19]
 L  packing[20]
 L  packing[21]
 L  packing[22]
 L  packing[23]
 L  packing[24]
 L  packing[25]
 L  packing[26]
 L  packing[27]
 L  packing[28]
 L  packing[29]
 L  packing[30]
 L  packing[31]
 L  packing[32]
 L  packing[33]
 L  packing[34]
 L  packing[35]
 L  packing[36]
 L  packing[37]
 L  packing[38]
 L  packing[39]
 L  packing[40]
 L  packing[41]
 L  packing[42]
 L  packing[43]
 L  packing[44]
 L  packing[45]
 L  packing[46]
 L  packing[47]
 L  packing[48]
 L  packing[49]
COLUMNS
    MARKER    'MARKER'                 'INTORG'
    x[1]      OBJ       40
    x[1]      packing[0]  38
    x[1]      packing[1]  56
    x[1]      packing[2]  170
    x[1]      packing[3]  112
    x[1]      packing[4]  100
    x[1]      packing[5]  87
    x[1]      packing[7]  84
    x[1]      packing[8]  133
    x[1]      packing[10]  27
    x[1]      packing[12]  139
    x[1]      packing[13]  16
    x[1]      packing[14]  106
    x[1]      packing[15]  169
    x[1]      packing[17]  118
    x[1]      packing[18]  6
    x[1]      packing[19]  49
    x[1]      packing[20]  162
    x[1]      packing[21]  37
    x[1]      packing[22]  21
    x[1]      packing[23]  67
    x[1]      packing[24]  1
    x[1]      packing[25]  20
    x[1]      packing[26]  17
    x[1]      packing[27]  79
    x[1]      packing[28]  187
    x[1]      packing[29]  73
    x[1]      packing[30]  31
    x[1]      packing[31]  58
    x[1]      packing[33]  38
    x[1]      packing[34]  77
    x[1]      packing[35]  180
    x[1]      packing[36]  128
    x[1]      packing[38]  91
    x[1]      packing[39]  185
    x[1]      packing[40]  59
    x[1]      packing[41]  37
    x[1]      packing[42]  133
    x[1]      packing[44]  76
    x[1]      packing[45]  148
    x[1]      packing[46]  48
    x[1]      packing[47]  27
    x[2]      OBJ       4
    x[2]      packing[0]  45
    x[2]      packing[1]  4
    x[2]      packing[2]  159
    x[2]      packing[5]  35
    x[2]      packing[6]  52
    x[2]      packing[7]  141
    x[2]      packing[8]  36
    x[2]      packing[9]  140
    x[2]      packing[10]  52
    x[2]      packing[11]  73
    x[2]      packing[12]  80
    x[2]      packing[13]  120
    x[2]      packing[14]  71
    x[2]      packing[15]  133
    x[2]      packing[16]  105
    x[2]      packing[17]  79
    x[2]      packing[20]  69
    x[2]      packing[21]  172
    x[2]      packing[22]  117
    x[2]      packing[24]  15
    x[2]      packing[25]  59
    x[2]      packing[26]  176
    x[2]      packing[27]  142
    x[2]      packing[28]  71
    x[2]      packing[31]  72
    x[2]      packing[32]  138
    x[2]      packing[33]  106
    x[2]      packing[34]  55
    x[2]      packing[35]  155
    x[2]      packing[36]  78
    x[2]      packing[37]  12
    x[2]      packing[38]  153
    x[2]      packing[39]  166
    x[2]      packing[42]  148
    x[2]      packing[44]  162
    x[2]      packing[45]  69
    x[2]      packing[46]  63
    x[2]      packing[47]  146
    x[2]      packing[48]  93
    x[3]      OBJ       137
    x[3]      packing[0]  76
    x[3]      packing[2]  107
    x[3]      packing[3]  27
    x[3]      packing[4]  44
    x[3]      packing[6]  26
    x[3]      packing[8]  186
    x[3]      packing[10]  113
    x[3]      packing[11]  132
    x[3]      packing[13]  121
    x[3]      packing[14]  171
    x[3]      packing[15]  123
    x[3]      packing[16]  166
    x[3]      packing[18]  112
    x[3]      packing[19]  43
    x[3]      packing[20]  65
    x[3]      packing[21]  15
    x[3]      packing[22]  107
    x[3]      packing[23]  81
    x[3]      packing[26]  111
    x[3]      packing[27]  28
    x[3]      packing[28]  92
    x[3]      packing[29]  64
    x[3]      packing[30]  158
    x[3]      packing[33]  167
    x[3]      packing[34]  94
    x[3]      packing[35]  6
    x[3]      packing[36]  66
    x[3]      packing[37]  142
    x[3]      packing[39]  144
    x[3]      packing[40]  89
    x[3]      packing[41]  132
    x[3]      packing[42]  45
    x[3]      packing[43]  158
    x[3]      packing[44]  79
    x[3]      packing[45]  140
    x[3]      packing[47]  173
    x[3]      packing[48]  5
    x[3]      packing[49]  163
    x[4]      OBJ       15
    x[4]      packing[0]  35
    x[4]      packing[2]  55
    x[4]      packing[4]  124
    x[4]      packing[5]  173
    x[4]      packing[6]  28
    x[4]      packing[9]  186
    x[4]      packing[10]  139
    x[4]      packing[12]  116
    x[4]      packing[13]  141
    x[4]      packing[15]  69
    x[4]      packing[16]  46
    x[4]      packing[17]  41
    x[4]      packing[18]  112
    x[4]      packing[19]  66
    x[4]      packing[20]  54
    x[4]      packing[21]  98
    x[4]      packing[22]  109
    x[4]      packing[26]  98
    x[4]      packing[27]  29
    x[4]      packing[28]  183
    x[4]      packing[29]  102
    x[4]      packing[30]  26
    x[4]      packing[31]  62
    x[4]      packing[32]  72
    x[4]      packing[33]  53
    x[4]      packing[34]  195
    x[4]      packing[35]  27
    x[4]      packing[38]  106
    x[4]      packing[39]  145
    x[4]      packing[41]  190
    x[4]      packing[43]  134
    x[4]      packing[44]  157
    x[4]      packing[45]  18
    x[4]      packing[46]  112
    x[4]      packing[47]  139
    x[4]      packing[48]  154
    x[4]      packing[49]  22
    x[5]      OBJ       182
    x[5]      packing[0]  45
    x[5]      packing[2]  174
    x[5]      packing[3]  187
    x[5]      packing[4]  26
    x[5]      packing[7]  134
    x[5]      packing[9]  6
    x[5]      packing[10]  70
    x[5]      packing[12]  50
    x[5]      packing[13]  10
    x[5]      packing[14]  138
    x[5]      packing[15]  191
    x[5]      packing[16]  143
    x[5]      packing[18]  97
    x[5]      packing[19]  155
    x[5]      packing[20]  60
    x[5]      packing[21]  130
    x[5]      packing[22]  152
    x[5]      packing[23]  33
    x[5]      packing[24]  156
    x[5]      packing[25]  52
    x[5]      packing[26]  5
    x[5]      packing[27]  169
    x[5]      packing[28]  19
    x[5]      packing[29]  38
    x[5]      packing[30]  74
    x[5]      packing[31]  167
    x[5]      packing[32]  77
    x[5]      packing[33]  87
    x[5]      packing[34]  56
    x[5]      packing[35]  19
    x[5]      packing[36]  102
    x[5]      packing[38]  170
    x[5]      packing[39]  114
    x[5]      packing[42]  37
    x[5]      packing[43]  105
    x[5]      packing[45]  10
    x[5]      packing[46]  64
    x[5]      packing[47]  77
    x[5]      packing[49]  71
    x[6]      OBJ       95
    x[6]      packing[0]  118
    x[6]      packing[1]  143
    x[6]      packing[2]  175
    x[6]      packing[3]  43
    x[6]      packing[4]  160
    x[6]      packing[6]  33
    x[6]      packing[7]  30
    x[6]      packing[8]  182
    x[6]      packing[9]  183
    x[6]      packing[11]  19
    x[6]      packing[12]  150
    x[6]      packing[13]  145
    x[6]      packing[14]  158
    x[6]      packing[15]  186
    x[6]      packing[17]  95
    x[6]      packing[18]  75
    x[6]      packing[19]  95
    x[6]      packing[20]  91
    x[6]      packing[23]  22
    x[6]      packing[24]  188
    x[6]      packing[27]  185
    x[6]      packing[28]  172
    x[6]      packing[29]  167
    x[6]      packing[31]  96
    x[6]      packing[32]  10
    x[6]      packing[33]  38
    x[6]      packing[34]  126
    x[6]      packing[36]  1
    x[6]      packing[37]  62
    x[6]      packing[38]  140
    x[6]      packing[39]  96
    x[6]      packing[41]  8
    x[6]      packing[42]  52
    x[6]      packing[43]  184
    x[6]      packing[44]  93
    x[6]      packing[45]  127
    x[6]      packing[48]  99
    x[6]      packing[49]  148
    x[7]      OBJ       120
    x[7]      packing[2]  26
    x[7]      packing[4]  5
    x[7]      packing[6]  112
    x[7]      packing[7]  67
    x[7]      packing[10]  163
    x[7]      packing[12]  193
    x[7]      packing[13]  42
    x[7]      packing[14]  24
    x[7]      packing[15]  115
    x[7]      packing[16]  100
    x[7]      packing[17]  46
    x[7]      packing[18]  14
    x[7]      packing[19]  132
    x[7]      packing[20]  50
    x[7]      packing[21]  72
    x[7]      packing[23]  131
    x[7]      packing[24]  44
    x[7]      packing[25]  122
    x[7]      packing[26]  187
    x[7]      packing[27]  144
    x[7]      packing[28]  2
    x[7]      packing[29]  60
    x[7]      packing[30]  84
    x[7]      packing[31]  144
    x[7]      packing[33]  167
    x[7]      packing[34]  112
    x[7]      packing[36]  15
    x[7]      packing[37]  151
    x[7]      packing[38]  41
    x[7]      packing[39]  135
    x[7]      packing[40]  174
    x[7]      packing[41]  41
    x[7]      packing[42]  22
    x[7]      packing[43]  179
    x[7]      packing[44]  90
    x[7]      packing[45]  77
    x[7]      packing[48]  146
    x[7]      packing[49]  130
    x[8]      OBJ       6
    x[8]      packing[0]  161
    x[8]      packing[1]  142
    x[8]      packing[3]  13
    x[8]      packing[4]  174
    x[8]      packing[5]  177
    x[8]      packing[6]  5
    x[8]      packing[7]  61
    x[8]      packing[10]  191
    x[8]      packing[11]  143
    x[8]      packing[12]  43
    x[8]      packing[13]  100
    x[8]      packing[14]  100
    x[8]      packing[18]  182
    x[8]      packing[19]  181
    x[8]      packing[20]  69
    x[8]      packing[21]  47
    x[8]      packing[22]  41
    x[8]      packing[23]  160
    x[8]      packing[24]  161
    x[8]      packing[25]  128
    x[8]      packing[26]  102
    x[8]      packing[27]  159
    x[8]      packing[29]  163
    x[8]      packing[30]  73
    x[8]      packing[32]  13
    x[8]      packing[33]  164
    x[8]      packing[35]  132
    x[8]      packing[37]  117
    x[8]      packing[38]  120
    x[8]      packing[39]  20
    x[8]      packing[40]  158
    x[8]      packing[41]  29
    x[8]      packing[42]  125
    x[8]      packing[43]  94
    x[8]      packing[44]  168
    x[8]      packing[45]  15
    x[8]      packing[46]  195
    x[8]      packing[48]  46
    x[8]      packing[49]  154
    x[9]      OBJ       129
    x[9]      packing[0]  148
    x[9]      packing[1]  187
    x[9]      packing[2]  2
    x[9]      packing[3]  182
    x[9]      packing[7]  42
    x[9]      packing[8]  95
    x[9]      packing[9]  154
    x[9]      packing[10]  138
    x[9]      packing[11]  156
    x[9]      packing[14]  198
    x[9]      packing[15]  53
    x[9]      packing[16]  159
    x[9]      packing[18]  52
    x[9]      packing[19]  147
    x[9]      packing[20]  196
    x[9]      packing[21]  75
    x[9]      packing[23]  71
    x[9]      packing[24]  79
    x[9]      packing[25]  13
    x[9]      packing[26]  56
    x[9]      packing[30]  153
    x[9]      packing[31]  12
    x[9]      packing[32]  161
    x[9]      packing[34]  142
    x[9]      packing[36]  93
    x[9]      packing[37]  101
    x[9]      packing[38]  83
    x[9]      packing[41]  114
    x[9]      packing[42]  186
    x[9]      packing[43]  26
    x[9]      packing[45]  155
    x[9]      packing[46]  42
    x[9]      packing[47]  140
    x[9]      packing[48]  114
    x[9]      packing[49]  39
    x[10]     OBJ       181
    x[10]     packing[0]  70
    x[10]     packing[2]  192
    x[10]     packing[3]  138
    x[10]     packing[4]  76
    x[10]     packing[5]  31
    x[10]     packing[6]  136
    x[10]     packing[7]  198
    x[10]     packing[8]  50
    x[10]     packing[9]  34
    x[10]     packing[10]  166
    x[10]     packing[11]  85
    x[10]     packing[16]  147
    x[10]     packing[17]  118
    x[10]     packing[18]  159
    x[10]     packing[20]  147
    x[10]     packing[21]  10
    x[10]     packing[22]  58
    x[10]     packing[26]  122
    x[10]     packing[27]  104
    x[10]     packing[28]  169
    x[10]     packing[30]  29
    x[10]     packing[31]  77
    x[10]     packing[32]  101
    x[10]     packing[35]  98
    x[10]     packing[36]  86
    x[10]     packing[37]  116
    x[10]     packing[38]  146
    x[10]     packing[39]  170
    x[10]     packing[40]  182
    x[10]     packing[41]  103
    x[10]     packing[42]  117
    x[10]     packing[43]  182
    x[10]     packing[46]  28
    x[11]     OBJ       119
    x[11]     packing[0]  43
    x[11]     packing[3]  56
    x[11]     packing[4]  73
    x[11]     packing[5]  44
    x[11]     packing[7]  26
    x[11]     packing[8]  134
    x[11]     packing[12]  125
    x[11]     packing[13]  28
    x[11]     packing[14]  6
    x[11]     packing[15]  10
    x[11]     packing[18]  106
    x[11]     packing[20]  184
    x[11]     packing[21]  141
    x[11]     packing[22]  89
    x[11]     packing[23]  35
    x[11]     packing[24]  117
    x[11]     packing[25]  153
    x[11]     packing[26]  179
    x[11]     packing[28]  58
    x[11]     packing[29]  11
    x[11]     packing[30]  176
    x[11]     packing[31]  77
    x[11]     packing[32]  142
    x[11]     packing[34]  136
    x[11]     packing[35]  98
    x[11]     packing[37]  72
    x[11]     packing[38]  14
    x[11]     packing[39]  42
    x[11]     packing[40]  132
    x[11]     packing[41]  56
    x[11]     packing[42]  147
    x[11]     packing[43]  120
    x[11]     packing[44]  45
    x[11]     packing[45]  165
    x[11]     packing[46]  32
    x[11]     packing[47]  65
    x[11]     packing[48]  172
    x[11]     packing[49]  139
    x[12]     OBJ       13
    x[12]     packing[0]  117
    x[12]     packing[1]  11
    x[12]     packing[2]  185
    x[12]     packing[3]  147
    x[12]     packing[5]  23
    x[12]     packing[6]  92
    x[12]     packing[7]  44
    x[12]     packing[9]  157
    x[12]     packing[10]  42
    x[12]     packing[11]  61
    x[12]     packing[13]  90
    x[12]     packing[15]  122
    x[12]     packing[17]  156
    x[12]     packing[18]  51
    x[12]     packing[24]  122
    x[12]     packing[25]  105
    x[12]     packing[26]  183
    x[12]     packing[29]  55
    x[12]     packing[30]  28
    x[12]     packing[31]  22
    x[12]     packing[33]  110
    x[12]     packing[34]  139
    x[12]     packing[35]  70
    x[12]     packing[36]  157
    x[12]     packing[37]  36
    x[12]     packing[38]  18
    x[12]     packing[39]  116
    x[12]     packing[40]  33
    x[12]     packing[41]  108
    x[12]     packing[42]  121
    x[12]     packing[43]  134
    x[12]     packing[44]  15
    x[12]     packing[45]  187
    x[12]     packing[46]  8
    x[12]     packing[47]  152
    x[12]     packing[48]  125
    x[12]     packing[49]  7
    x[13]     OBJ       159
    x[13]     packing[0]  176
    x[13]     packing[4]  197
    x[13]     packing[5]  63
    x[13]     packing[6]  47
    x[13]     packing[7]  8
    x[13]     packing[8]  175
    x[13]     packing[10]  169
    x[13]     packing[12]  159
    x[13]     packing[13]  197
    x[13]     packing[15]  1
    x[13]     packing[16]  54
    x[13]     packing[17]  95
    x[13]     packing[18]  192
    x[13]     packing[19]  137
    x[13]     packing[20]  174
    x[13]     packing[22]  123
    x[13]     packing[23]  2
    x[13]     packing[24]  148
    x[13]     packing[25]  197
    x[13]     packing[26]  139
    x[13]     packing[27]  111
    x[13]     packing[28]  11
    x[13]     packing[30]  144
    x[13]     packing[31]  176
    x[13]     packing[32]  137
    x[13]     packing[33]  68
    x[13]     packing[34]  26
    x[13]     packing[35]  184
    x[13]     packing[37]  156
    x[13]     packing[39]  89
    x[13]     packing[40]  131
    x[13]     packing[42]  147
    x[13]     packing[44]  169
    x[13]     packing[45]  177
    x[13]     packing[46]  67
    x[13]     packing[47]  104
    x[13]     packing[48]  19
    x[13]     packing[49]  197
    x[14]     OBJ       139
    x[14]     packing[1]  124
    x[14]     packing[2]  109
    x[14]     packing[3]  181
    x[14]     packing[4]  98
    x[14]     packing[5]  107
    x[14]     packing[8]  22
    x[14]     packing[10]  25
    x[14]     packing[11]  61
    x[14]     packing[12]  127
    x[14]     packing[16]  73
    x[14]     packing[17]  77
    x[14]     packing[19]  41
    x[14]     packing[20]  111
    x[14]     packing[21]  132
    x[14]     packing[22]  190
    x[14]     packing[23]  96
    x[14]     packing[24]  169
    x[14]     packing[25]  77
    x[14]     packing[26]  9
    x[14]     packing[27]  134
    x[14]     packing[28]  139
    x[14]     packing[31]  166
    x[14]     packing[33]  46
    x[14]     packing[34]  191
    x[14]     packing[37]  143
    x[14]     packing[38]  181
    x[14]     packing[40]  15
    x[14]     packing[41]  165
    x[14]     packing[42]  135
    x[14]     packing[44]  119
    x[14]     packing[45]  13
    x[14]     packing[47]  33
    x[14]     packing[48]  122
    x[14]     packing[49]  54
    x[15]     OBJ       191
    x[15]     packing[0]  199
    x[15]     packing[1]  171
    x[15]     packing[2]  127
    x[15]     packing[3]  69
    x[15]     packing[4]  124
    x[15]     packing[6]  62
    x[15]     packing[7]  50
    x[15]     packing[8]  149
    x[15]     packing[9]  8
    x[15]     packing[10]  134
    x[15]     packing[11]  109
    x[15]     packing[12]  131
    x[15]     packing[13]  42
    x[15]     packing[14]  85
    x[15]     packing[15]  186
    x[15]     packing[16]  157
    x[15]     packing[18]  41
    x[15]     packing[20]  110
    x[15]     packing[21]  59
    x[15]     packing[22]  181
    x[15]     packing[23]  78
    x[15]     packing[24]  117
    x[15]     packing[25]  148
    x[15]     packing[26]  76
    x[15]     packing[27]  79
    x[15]     packing[28]  16
    x[15]     packing[29]  4
    x[15]     packing[30]  98
    x[15]     packing[31]  107
    x[15]     packing[32]  174
    x[15]     packing[34]  107
    x[15]     packing[35]  19
    x[15]     packing[36]  190
    x[15]     packing[38]  98
    x[15]     packing[39]  171
    x[15]     packing[40]  62
    x[15]     packing[43]  141
    x[15]     packing[44]  163
    x[15]     packing[45]  163
    x[15]     packing[46]  121
    x[15]     packing[47]  163
    x[15]     packing[48]  185
    x[15]     packing[49]  65
    x[16]     OBJ       72
    x[16]     packing[0]  14
    x[16]     packing[2]  6
    x[16]     packing[4]  100
    x[16]     packing[5]  90
    x[16]     packing[8]  187
    x[16]     packing[10]  60
    x[16]     packing[12]  123
    x[16]     packing[15]  87
    x[16]     packing[17]  8
    x[16]     packing[18]  81
    x[16]     packing[19]  110
    x[16]     packing[20]  199
    x[16]     packing[22]  127
    x[16]     packing[24]  185
    x[16]     packing[25]  177
    x[16]     packing[26]  140
    x[16]     packing[27]  52
    x[16]     packing[28]  86
    x[16]     packing[30]  177
    x[16]     packing[31]  109
    x[16]     packing[32]  21
    x[16]     packing[33]  91
    x[16]     packing[36]  23
    x[16]     packing[37]  28
    x[16]     packing[38]  142
    x[16]     packing[39]  72
    x[16]     packing[40]  49
    x[16]     packing[42]  150
    x[16]     packing[43]  36
    x[16]     packing[44]  24
    x[16]     packing[45]  196
    x[16]     packing[47]  137
    x[16]     packing[48]  35
    x[16]     packing[49]  104
    x[17]     OBJ       87
    x[17]     packing[1]  39
    x[17]     packing[3]  167
    x[17]     packing[5]  68
    x[17]     packing[6]  94
    x[17]     packing[7]  166
    x[17]     packing[8]  151
    x[17]     packing[9]  109
    x[17]     packing[10]  126
    x[17]     packing[11]  66
    x[17]     packing[12]  124
    x[17]     packing[13]  74
    x[17]     packing[14]  195
    x[17]     packing[15]  67
    x[17]     packing[16]  33
    x[17]     packing[18]  140
    x[17]     packing[20]  110
    x[17]     packing[21]  155
    x[17]     packing[23]  59
    x[17]     packing[24]  12
    x[17]     packing[25]  34
    x[17]     packing[26]  182
    x[17]     packing[27]  182
    x[17]     packing[28]  32
    x[17]     packing[31]  15
    x[17]     packing[33]  62
    x[17]     packing[35]  146
    x[17]     packing[38]  80
    x[17]     packing[39]  199
    x[17]     packing[40]  22
    x[17]     packing[41]  34
    x[17]     packing[42]  62
    x[17]     packing[44]  190
    x[17]     packing[45]  96
    x[17]     packing[46]  27
    x[17]     packing[47]  74
    x[17]     packing[49]  150
    x[18]     OBJ       62
    x[18]     packing[0]  139
    x[18]     packing[1]  133
    x[18]     packing[2]  132
    x[18]     packing[3]  171
    x[18]     packing[4]  34
    x[18]     packing[5]  114
    x[18]     packing[6]  22
    x[18]     packing[7]  133
    x[18]     packing[8]  59
    x[18]     packing[9]  187
    x[18]     packing[10]  40
    x[18]     packing[11]  138
    x[18]     packing[13]  65
    x[18]     packing[14]  94
    x[18]     packing[15]  131
    x[18]     packing[16]  176
    x[18]     packing[17]  38
    x[18]     packing[19]  92
    x[18]     packing[20]  116
    x[18]     packing[21]  7
    x[18]     packing[22]  157
    x[18]     packing[23]  84
    x[18]     packing[26]  143
    x[18]     packing[27]  62
    x[18]     packing[28]  24
    x[18]     packing[29]  18
    x[18]     packing[30]  30
    x[18]     packing[31]  118
    x[18]     packing[32]  140
    x[18]     packing[33]  80
    x[18]     packing[35]  153
    x[18]     packing[37]  193
    x[18]     packing[39]  113
    x[18]     packing[40]  80
    x[18]     packing[41]  184
    x[18]     packing[42]  23
    x[18]     packing[43]  178
    x[18]     packing[44]  143
    x[18]     packing[45]  112
    x[18]     packing[46]  158
    x[18]     packing[48]  117
    x[19]     OBJ       167
    x[19]     packing[0]  12
    x[19]     packing[1]  169
    x[19]     packing[2]  1
    x[19]     packing[3]  190
    x[19]     packing[5]  196
    x[19]     packing[6]  65
    x[19]     packing[7]  166
    x[19]     packing[9]  160
    x[19]     packing[10]  159
    x[19]     packing[11]  23
    x[19]     packing[12]  27
    x[19]     packing[14]  165
    x[19]     packing[17]  72
    x[19]     packing[18]  190
    x[19]     packing[19]  78
    x[19]     packing[20]  53
    x[19]     packing[21]  88
    x[19]     packing[22]  52
    x[19]     packing[23]  24
    x[19]     packing[24]  160
    x[19]     packing[25]  197
    x[19]     packing[26]  26
    x[19]     packing[27]  62
    x[19]     packing[28]  51
    x[19]     packing[29]  27
    x[19]     packing[30]  99
    x[19]     packing[31]  143
    x[19]     packing[33]  152
    x[19]     packing[34]  53
    x[19]     packing[35]  166
    x[19]     packing[36]  46
    x[19]     packing[37]  116
    x[19]     packing[38]  194
    x[19]     packing[39]  6
    x[19]     packing[40]  11
    x[19]     packing[41]  154
    x[19]     packing[42]  52
    x[19]     packing[43]  4
    x[19]     packing[44]  174
    x[19]     packing[45]  74
    x[19]     packing[46]  60
    x[19]     packing[47]  125
    x[19]     packing[48]  191
    x[19]     packing[49]  32
    x[20]     OBJ       33
    x[20]     packing[0]  183
    x[20]     packing[1]  177
    x[20]     packing[2]  75
    x[20]     packing[3]  142
    x[20]     packing[4]  118
    x[20]     packing[5]  106
    x[20]     packing[6]  119
    x[20]     packing[8]  126
    x[20]     packing[9]  29
    x[20]     packing[10]  105
    x[20]     packing[11]  86
    x[20]     packing[12]  175
    x[20]     packing[13]  153
    x[20]     packing[14]  173
    x[20]     packing[16]  87
    x[20]     packing[18]  48
    x[20]     packing[19]  136
    x[20]     packing[20]  71
    x[20]     packing[22]  112
    x[20]     packing[23]  42
    x[20]     packing[25]  14
    x[20]     packing[27]  100
    x[20]     packing[28]  8
    x[20]     packing[29]  157
    x[20]     packing[32]  111
    x[20]     packing[34]  81
    x[20]     packing[35]  86
    x[20]     packing[36]  125
    x[20]     packing[38]  137
    x[20]     packing[39]  59
    x[20]     packing[42]  100
    x[20]     packing[43]  95
    x[20]     packing[44]  131
    x[20]     packing[45]  170
    x[20]     packing[47]  193
    x[20]     packing[48]  43
    x[20]     packing[49]  172
    MARKER    'MARKER'                 'INTEND'
RHS
    RHS1      packing[0]  810
    RHS1      packing[1]  678
    RHS1      packing[2]  848
    RHS1      packing[3]  913
    RHS1      packing[4]  727
    RHS1      packing[5]  657
    RHS1      packing[6]  447
    RHS1      packing[7]  675
    RHS1      packing[8]  843
    RHS1      packing[9]  677
    RHS1      packing[10]  960
    RHS1      packing[11]  576
    RHS1      packing[12]  881
    RHS1      packing[13]  672
    RHS1      packing[14]  842
    RHS1      packing[15]  822
    RHS1      packing[16]  723
    RHS1      packing[17]  472
    RHS1      packing[18]  829
    RHS1      packing[19]  731
    RHS1      packing[20]  1046
    RHS1      packing[21]  619
    RHS1      packing[22]  818
    RHS1      packing[23]  493
    RHS1      packing[24]  837
    RHS1      packing[25]  748
    RHS1      packing[26]  976
    RHS1      packing[27]  911
    RHS1      packing[28]  660
    RHS1      packing[29]  470
    RHS1      packing[30]  690
    RHS1      packing[31]  811
    RHS1      packing[32]  649
    RHS1      packing[33]  715
    RHS1      packing[34]  795
    RHS1      packing[35]  770
    RHS1      packing[36]  555
    RHS1      packing[37]  723
    RHS1      packing[38]  957
    RHS1      packing[39]  1021
    RHS1      packing[40]  599
    RHS1      packing[41]  678
    RHS1      packing[42]  901
    RHS1      packing[43]  885
    RHS1      packing[44]  999
    RHS1      packing[45]  1056
    RHS1      packing[46]  513
    RHS1      packing[47]  874
    RHS1      packing[48]  833
    RHS1      packing[49]  824
BOUNDS
 BV BND1      x[1]    
 BV BND1      x[2]    
 BV BND1      x[3]    
 BV BND1      x[4]    
 BV BND1      x[5]    
 BV BND1      x[6]    
 BV BND1      x[7]    
 BV BND1      x[8]    
 BV BND1      x[9]    
 BV BND1      x[10]   
 BV BND1      x[11]   
 BV BND1      x[12]   
 BV BND1      x[13]   
 BV BND1      x[14]   
 BV BND1      x[15]   
 BV BND1      x[16]   
 BV BND1      x[17]   
 BV BND1      x[18]   
 BV BND1      x[19]   
 BV BND1      x[20]   
ENDATA
